# Solution for model micodag
# Objective value = 2.0038297601699227e+01
s_0_1 0
s_1_0 0
s_0_2 0
s_2_0 1.8938085303856056e-01
s_1_2 0
s_2_1 3.0532017099939290e-01
s_1_3 0
s_3_1 1.9942248242602068e-01
s_1_9 0
s_9_1 0
s_1_12 0
s_12_1 7.2867176218576368e-01
s_1_13 0
s_13_1 2.0294792274674922e-01
s_2_3 0
s_3_2 2.8407449775946558e-01
s_2_4 0
s_4_2 2.9877966686993807e-01
s_2_6 0
s_6_2 0
s_2_8 0
s_8_2 2.4220178961847738e-01
s_3_4 0
s_4_3 6.1651507065181210e-01
s_3_6 0
s_6_3 0
s_3_7 0
s_7_3 0
s_3_8 0
s_8_3 3.7490590019073133e-01
s_3_9 0
s_9_3 3.2473130163190911e-01
s_3_12 0
s_12_3 0
s_3_13 0
s_13_3 3.5109996404827726e-01
s_4_5 0
s_5_4 0
s_4_6 0
s_6_4 3.3009175764260412e-01
s_4_7 0
s_7_4 0
s_4_8 0
s_8_4 0
s_4_11 0
s_11_4 0.405973157037824
s_5_6 0
s_6_5 5.6716894678203689e-01
s_5_7 0
s_7_5 7.0421795511323992e-01
s_5_14 0
s_14_5 2.4049439328089717e-01
s_6_8 0
s_8_6 3.9310418184759266e-01
s_7_8 0
s_8_7 0
s_7_9 0
s_9_7 3.4638052528160435e-01
s_7_10 0
s_10_7 2.3035265411846284e-01
s_7_11 0
s_11_7 4.2678146547365525e-01
s_8_11 0
s_11_8 2.3096198515917488e-01
s_9_12 0
s_12_9 3.2736501914251370e-01
s_12_13 0
s_13_12 2.0197927368213620e-01
s_0_0 1.0219872957922258e+00
s_1_1 6.3502495118302793e-01
s_2_2 7.8825992191216354e-01
s_3_3 6.6865133763651086e-01
s_4_4 0.929273422434207
s_5_5 5.5849251036907965e-01
s_6_6 9.3874605655124066e-01
s_7_7 1.0526499199738617e+00
s_8_8 6.4741331398652013e-01
s_9_9 9.7962839041877015e-01
s_10_10 6.2191527243519040e-01
s_11_11 6.4674579851135583e-01
s_12_12 9.8988702901406533e-01
s_13_13 6.8893532715274919e-01
s_14_14 1.0098107275261146e+00
Gamma_0_0 1.0109338731055686e+00
Gamma_0_1 0
Gamma_0_2 0
Gamma_0_3 0
Gamma_0_4 0
Gamma_0_5 0
Gamma_0_6 0
Gamma_0_7 0
Gamma_0_8 0
Gamma_0_9 0
Gamma_0_10 0
Gamma_0_11 0
Gamma_0_12 0
Gamma_0_13 0
Gamma_0_14 0
Gamma_1_0 0
Gamma_1_1 7.9688452813630928e-01
Gamma_1_2 0
Gamma_1_3 0
Gamma_1_4 0
Gamma_1_5 0
Gamma_1_6 0
Gamma_1_7 0
Gamma_1_8 0
Gamma_1_9 0
Gamma_1_10 0
Gamma_1_11 0
Gamma_1_12 0
Gamma_1_13 0
Gamma_1_14 0
Gamma_2_0 -4.3517910455186248e-01
Gamma_2_1 -5.5255784403028185e-01
Gamma_2_2 8.8784003171301307e-01
Gamma_2_3 0
Gamma_2_4 0
Gamma_2_5 0
Gamma_2_6 0
Gamma_2_7 0
Gamma_2_8 0
Gamma_2_9 0
Gamma_2_10 0
Gamma_2_11 0
Gamma_2_12 0
Gamma_2_13 0
Gamma_2_14 0
Gamma_3_0 0
Gamma_3_1 4.4656744443143304e-01
Gamma_3_2 5.3298639547315474e-01
Gamma_3_3 8.1771103553548252e-01
Gamma_3_4 0
Gamma_3_5 0
Gamma_3_6 0
Gamma_3_7 0
Gamma_3_8 0
Gamma_3_9 0
Gamma_3_10 0
Gamma_3_11 0
Gamma_3_12 0
Gamma_3_13 0
Gamma_3_14 0
Gamma_4_0 0
Gamma_4_1 0
Gamma_4_2 5.4660741567411852e-01
Gamma_4_3 7.8518473663960908e-01
Gamma_4_4 9.6398828957317073e-01
Gamma_4_5 0
Gamma_4_6 0
Gamma_4_7 0
Gamma_4_8 0
Gamma_4_9 0
Gamma_4_10 0
Gamma_4_11 0
Gamma_4_12 0
Gamma_4_13 0
Gamma_4_14 0
Gamma_5_0 0
Gamma_5_1 0
Gamma_5_2 0
Gamma_5_3 0
Gamma_5_4 0
Gamma_5_5 7.4732356470880779e-01
Gamma_5_6 0
Gamma_5_7 0
Gamma_5_8 0
Gamma_5_9 0
Gamma_5_10 0
Gamma_5_11 0
Gamma_5_12 0
Gamma_5_13 0
Gamma_5_14 0
Gamma_6_0 0
Gamma_6_1 0
Gamma_6_2 0
Gamma_6_3 0
Gamma_6_4 -5.7453612387960840e-01
Gamma_6_5 7.5310619887372954e-01
Gamma_6_6 9.6888908371972127e-01
Gamma_6_7 0
Gamma_6_8 0
Gamma_6_9 0
Gamma_6_10 0
Gamma_6_11 0
Gamma_6_12 0
Gamma_6_13 0
Gamma_6_14 0
Gamma_7_0 0
Gamma_7_1 0
Gamma_7_2 0
Gamma_7_3 0
Gamma_7_4 0
Gamma_7_5 -8.3917695101405176e-01
Gamma_7_6 0
Gamma_7_7 1.0259872903568843e+00
Gamma_7_8 0
Gamma_7_9 0
Gamma_7_10 0
Gamma_7_11 0
Gamma_7_12 0
Gamma_7_13 0
Gamma_7_14 0
Gamma_8_0 0
Gamma_8_1 0
Gamma_8_2 4.9214001017848358e-01
Gamma_8_3 6.1229559870272765e-01
Gamma_8_4 0
Gamma_8_5 0
Gamma_8_6 -6.2698020849751923e-01
Gamma_8_7 0
Gamma_8_8 8.0461998110071853e-01
Gamma_8_9 0
Gamma_8_10 0
Gamma_8_11 0
Gamma_8_12 0
Gamma_8_13 0
Gamma_8_14 0
Gamma_9_0 0
Gamma_9_1 0
Gamma_9_2 0
Gamma_9_3 5.6985199976126222e-01
Gamma_9_4 0
Gamma_9_5 0
Gamma_9_6 0
Gamma_9_7 -5.8854101410318460e-01
Gamma_9_8 0
Gamma_9_9 9.8976178468294618e-01
Gamma_9_10 0
Gamma_9_11 0
Gamma_9_12 0
Gamma_9_13 0
Gamma_9_14 0
Gamma_10_0 0
Gamma_10_1 0
Gamma_10_2 0
Gamma_10_3 0
Gamma_10_4 0
Gamma_10_5 0
Gamma_10_6 0
Gamma_10_7 4.7995067883946479e-01
Gamma_10_8 0
Gamma_10_9 0
Gamma_10_10 7.8861604880650960e-01
Gamma_10_11 0
Gamma_10_12 0
Gamma_10_13 0
Gamma_10_14 0
Gamma_11_0 0
Gamma_11_1 0
Gamma_11_2 0
Gamma_11_3 0
Gamma_11_4 -6.3716022870061861e-01
Gamma_11_5 0
Gamma_11_6 0
Gamma_11_7 6.5328513336341565e-01
Gamma_11_8 4.8058504466865731e-01
Gamma_11_9 0
Gamma_11_10 0
Gamma_11_11 8.0420507242329420e-01
Gamma_11_12 0
Gamma_11_13 0
Gamma_11_14 0
Gamma_12_0 0
Gamma_12_1 -8.5362272825046293e-01
Gamma_12_2 0
Gamma_12_3 0
Gamma_12_4 0
Gamma_12_5 0
Gamma_12_6 0
Gamma_12_7 0
Gamma_12_8 0
Gamma_12_9 -5.7215821163600744e-01
Gamma_12_10 0
Gamma_12_11 0
Gamma_12_12 9.9493066543054443e-01
Gamma_12_13 0
Gamma_12_14 0
Gamma_13_0 0
Gamma_13_1 4.5049741702561341e-01
Gamma_13_2 0
Gamma_13_3 5.9253688834390494e-01
Gamma_13_4 0
Gamma_13_5 0
Gamma_13_6 0
Gamma_13_7 0
Gamma_13_8 0
Gamma_13_9 0
Gamma_13_10 0
Gamma_13_11 0
Gamma_13_12 4.4942104276739958e-01
Gamma_13_13 8.3002128114449558e-01
Gamma_13_14 0
Gamma_14_0 0
Gamma_14_1 0
Gamma_14_2 0
Gamma_14_3 0
Gamma_14_4 0
Gamma_14_5 4.9040227699399785e-01
Gamma_14_6 0
Gamma_14_7 0
Gamma_14_8 0
Gamma_14_9 0
Gamma_14_10 0
Gamma_14_11 0
Gamma_14_12 0
Gamma_14_13 0
Gamma_14_14 1.0048933911247075e+00
psi_0 6
psi_1 6
psi_2 5
psi_3 4
psi_4 3
psi_5 4
psi_6 2
psi_7 3
psi_8 1
psi_9 2
psi_10 0
psi_11 0
psi_12 1
psi_13 0
psi_14 0
g_0_0 0
g_0_1 0
g_0_2 0
g_0_3 0
g_0_4 0
g_0_5 0
g_0_6 0
g_0_7 0
g_0_8 0
g_0_9 0
g_0_10 0
g_0_11 0
g_0_12 0
g_0_13 0
g_0_14 0
g_1_0 0
g_1_1 0
g_1_2 0
g_1_3 0
g_1_4 0
g_1_5 0
g_1_6 0
g_1_7 0
g_1_8 0
g_1_9 0
g_1_10 0
g_1_11 0
g_1_12 0
g_1_13 0
g_1_14 0
g_2_0 1
g_2_1 1
g_2_2 0
g_2_3 0
g_2_4 0
g_2_5 0
g_2_6 0
g_2_7 0
g_2_8 0
g_2_9 0
g_2_10 0
g_2_11 0
g_2_12 0
g_2_13 0
g_2_14 0
g_3_0 0
g_3_1 1
g_3_2 1
g_3_3 0
g_3_4 0
g_3_5 0
g_3_6 0
g_3_7 0
g_3_8 0
g_3_9 0
g_3_10 0
g_3_11 0
g_3_12 0
g_3_13 0
g_3_14 0
g_4_0 0
g_4_1 0
g_4_2 1
g_4_3 1
g_4_4 0
g_4_5 0
g_4_6 0
g_4_7 0
g_4_8 0
g_4_9 0
g_4_10 0
g_4_11 0
g_4_12 0
g_4_13 0
g_4_14 0
g_5_0 0
g_5_1 0
g_5_2 0
g_5_3 0
g_5_4 0
g_5_5 0
g_5_6 0
g_5_7 0
g_5_8 0
g_5_9 0
g_5_10 0
g_5_11 0
g_5_12 0
g_5_13 0
g_5_14 0
g_6_0 0
g_6_1 0
g_6_2 0
g_6_3 0
g_6_4 1
g_6_5 1
g_6_6 0
g_6_7 0
g_6_8 0
g_6_9 0
g_6_10 0
g_6_11 0
g_6_12 0
g_6_13 0
g_6_14 0
g_7_0 0
g_7_1 0
g_7_2 0
g_7_3 0
g_7_4 0
g_7_5 1
g_7_6 0
g_7_7 0
g_7_8 0
g_7_9 0
g_7_10 0
g_7_11 0
g_7_12 0
g_7_13 0
g_7_14 0
g_8_0 0
g_8_1 0
g_8_2 1
g_8_3 1
g_8_4 0
g_8_5 0
g_8_6 1
g_8_7 0
g_8_8 0
g_8_9 0
g_8_10 0
g_8_11 0
g_8_12 0
g_8_13 0
g_8_14 0
g_9_0 0
g_9_1 0
g_9_2 0
g_9_3 1
g_9_4 0
g_9_5 0
g_9_6 0
g_9_7 1
g_9_8 0
g_9_9 0
g_9_10 0
g_9_11 0
g_9_12 0
g_9_13 0
g_9_14 0
g_10_0 0
g_10_1 0
g_10_2 0
g_10_3 0
g_10_4 0
g_10_5 0
g_10_6 0
g_10_7 1
g_10_8 0
g_10_9 0
g_10_10 0
g_10_11 0
g_10_12 0
g_10_13 0
g_10_14 0
g_11_0 0
g_11_1 0
g_11_2 0
g_11_3 0
g_11_4 1
g_11_5 0
g_11_6 0
g_11_7 1
g_11_8 1
g_11_9 0
g_11_10 0
g_11_11 0
g_11_12 0
g_11_13 0
g_11_14 0
g_12_0 0
g_12_1 1
g_12_2 0
g_12_3 0
g_12_4 0
g_12_5 0
g_12_6 0
g_12_7 0
g_12_8 0
g_12_9 1
g_12_10 0
g_12_11 0
g_12_12 0
g_12_13 0
g_12_14 0
g_13_0 0
g_13_1 1
g_13_2 0
g_13_3 1
g_13_4 0
g_13_5 0
g_13_6 0
g_13_7 0
g_13_8 0
g_13_9 0
g_13_10 0
g_13_11 0
g_13_12 1
g_13_13 0
g_13_14 0
g_14_0 0
g_14_1 0
g_14_2 0
g_14_3 0
g_14_4 0
g_14_5 1
g_14_6 0
g_14_7 0
g_14_8 0
g_14_9 0
g_14_10 0
g_14_11 0
g_14_12 0
g_14_13 0
g_14_14 0
T_0 1.0874530486286633e-02
T_1 -2.2704549382989184e-01
T_2 -1.1896369668525812e-01
T_3 -2.0124626208103150e-01
T_4 -3.6676132191049413e-02
T_5 -2.9125703541203596e-01
T_6 -3.1605138328483058e-02
T_7 2.5655359105461684e-02
T_8 -2.1738518619200045e-01
T_9 -1.0290986339884694e-02
T_10 -2.3747570673565932e-01
T_11 -2.1790097712366704e-01
T_12 -5.0822272358936925e-03
T_13 -1.8630393858706371e-01
T_14 4.8814574014408264e-03
